100 47067

 375 32
951 637
732 315
599 509
157 908
156 250
59 411
867 756
602 229
709 77
21 290
970 162
833 930
213 809
182 634
184 872
305 804
525 187
432 893
292 540
612 808
140 897
293 319
367 111
457 228
786 428
200 819
515 861
593 7
47 511
608 418
171 223
66 120
949 338
966 943
809 324
305 519
98 704
685 364
441 972
123 963
496 252
35 498
910 301
259 285
663 37
312 610
521 503
547 52
185 279
970 909
776 240
940 145
895 490
598 986
922 243
89 673
196 762
46 238
326 729
389 368
272 633
829 634
357 536
281 91
543 836
141 321
803 187
75 41
987 591
773 678
199 17
6 513
816 227
707 646
730 175
772 691
75 387
359 937
116 138
864 342
624 114
331 925
64 878
311 258
326 660
730 818
638 556
888 530
473 242
120 94
714 898
761 901
562 634
771 340
494 350
523 726
428 898
26 888
108 780
